% seed = 5956282

mint = 78;
% maxt = 264;

nActs = 42;
dur = [0,4,9,7,10,2,4,10,10,9,8,5,9,10,2,5,7,9,8,8,9,9,1,4,2,10,9,6,7,10,6,4,5,10,9,3,2,1,3,9,9,0];

nSkills = 4;
sreq = [| 0,0,0,0,
	| 3,6,3,0,
	| 0,3,3,3,
	| 0,3,6,2,
	| 7,2,3,0,
	| 7,0,3,2,
	| 0,3,3,4,
	| 3,7,4,0,
	| 3,4,5,0,
	| 6,4,0,5,
	| 5,2,0,5,
	| 5,4,2,0,
	| 5,2,0,3,
	| 4,5,0,6,
	| 0,4,3,5,
	| 7,5,0,4,
	| 4,2,5,0,
	| 0,5,5,2,
	| 4,4,0,5,
	| 3,4,3,0,
	| 2,2,0,5,
	| 0,5,3,4,
	| 0,1,2,5,
	| 4,0,3,1,
	| 1,4,3,0,
	| 4,4,6,0,
	| 3,3,5,0,
	| 7,4,0,3,
	| 2,7,6,0,
	| 6,4,0,2,
	| 0,6,7,2,
	| 6,0,4,4,
	| 4,3,0,2,
	| 4,7,2,0,
	| 3,0,5,3,
	| 3,2,0,5,
	| 0,5,2,7,
	| 7,6,0,2,
	| 2,7,4,0,
	| 4,5,3,0,
	| 4,0,7,3,
	| 0,0,0,0, |];

nResources = 38;
mastery = [| false,false,true,true,
	| false,false,true,false,
	| true,true,false,true,
	| false,true,false,false,
	| false,false,true,true,
	| true,true,true,false,
	| true,false,false,false,
	| true,false,true,false,
	| false,true,false,false,
	| true,false,false,true,
	| true,true,false,true,
	| true,true,false,true,
	| false,true,true,false,
	| false,false,false,true,
	| false,false,true,false,
	| true,true,true,false,
	| false,false,true,false,
	| false,false,true,false,
	| true,false,false,false,
	| true,true,false,false,
	| false,false,true,true,
	| true,true,false,false,
	| true,true,false,true,
	| true,false,true,true,
	| false,false,true,false,
	| true,true,false,true,
	| true,true,false,false,
	| true,true,false,true,
	| true,true,false,true,
	| false,true,false,false,
	| true,false,false,false,
	| true,false,false,true,
	| false,false,false,true,
	| false,true,true,true,
	| false,true,false,false,
	| true,false,false,false,
	| false,true,true,false,
	| true,false,false,false, |];

nPrecs = 85;
pred = [1,1,1,2,2,2,3,3,3,4,4,4,5,5,5,6,6,6,7,7,7,8,8,8,9,9,9,10,10,10,11,11,12,12,12,13,13,14,14,14,15,15,15,16,17,17,18,18,18,19,19,20,21,21,22,22,22,23,24,24,24,25,25,26,27,27,28,29,30,31,31,31,32,33,34,34,35,35,35,36,37,38,39,40,41];
succ = [2,3,4,17,16,8,13,5,24,26,28,34,36,6,15,9,21,7,18,11,12,27,21,14,10,14,31,41,28,16,17,35,19,29,16,20,30,18,28,22,26,19,31,35,20,23,25,33,23,20,38,27,25,26,25,33,23,34,27,29,35,34,32,30,37,32,29,30,33,37,39,32,41,40,38,39,37,38,39,40,41,40,42,42,42];

nUnrels = 408;
unpred = [2,2,2,2,2,2,2,2,2,2,2,2,2,2,2,3,3,4,4,4,4,4,4,4,4,4,4,4,4,4,4,4,4,4,4,4,4,4,4,4,4,4,4,4,4,5,5,5,6,6,6,6,6,7,7,7,7,7,7,7,7,7,7,7,7,7,8,8,8,8,8,8,8,8,8,8,8,8,8,8,9,9,9,9,9,9,9,9,9,9,9,9,10,10,10,10,10,10,10,10,10,10,10,10,10,10,10,10,10,10,10,10,11,11,11,11,11,11,11,11,11,11,11,11,11,11,11,11,11,11,12,12,12,12,12,12,12,12,12,12,12,12,12,12,12,13,13,13,13,13,13,13,13,13,13,13,13,13,13,13,13,13,13,13,13,14,14,14,14,14,14,14,14,14,14,14,14,14,15,15,15,15,15,15,15,15,15,15,15,15,15,16,16,16,16,16,16,16,16,16,16,16,16,16,16,16,16,16,16,16,17,17,17,17,17,17,17,17,17,17,17,17,17,17,18,18,18,18,18,18,18,18,18,18,18,18,18,18,19,19,19,19,19,19,19,19,19,19,19,19,19,19,19,20,20,20,20,20,20,20,20,20,20,20,20,20,20,20,20,20,21,21,21,21,21,21,21,21,21,21,22,22,22,22,22,22,22,22,22,22,23,23,23,23,23,23,23,23,23,23,23,23,23,23,24,24,24,24,24,24,25,25,25,25,25,25,25,25,25,25,26,26,26,26,26,26,26,26,26,26,26,26,27,27,27,27,27,27,27,27,27,27,27,28,28,28,28,28,28,28,28,28,29,29,29,29,29,29,29,29,29,30,30,30,30,30,30,30,30,30,31,31,31,31,31,31,32,32,32,32,32,32,32,32,33,33,33,33,33,33,33,34,34,34,34,35,36,36,36,36,37,37,37,38,38,39,39,40];
unsucc = [3,4,5,6,7,9,10,11,12,13,15,19,24,31,36,4,8,5,6,7,8,9,10,11,12,13,14,15,16,17,18,19,20,21,22,23,24,25,27,31,32,35,36,37,41,8,13,24,8,13,15,24,36,8,9,10,13,14,15,21,22,24,26,28,31,36,9,10,11,12,13,15,16,17,19,20,24,31,35,36,11,12,13,15,17,19,20,21,24,26,27,36,11,12,13,14,15,17,18,19,20,21,22,23,24,25,26,27,31,32,34,36,12,13,14,15,16,18,19,21,22,24,25,26,28,29,30,31,33,36,13,14,15,17,18,21,22,23,24,25,26,28,31,34,36,14,15,16,17,18,19,21,22,23,24,25,26,28,29,31,34,35,36,38,39,15,16,17,19,20,21,24,26,27,31,35,36,37,16,17,18,21,22,23,24,25,28,29,34,35,36,17,18,19,20,21,22,23,24,25,26,27,28,29,30,31,32,33,34,36,18,19,21,22,24,25,26,28,29,30,31,33,35,36,19,20,21,22,24,26,27,28,29,30,31,35,36,37,21,22,23,24,25,26,28,29,30,31,33,34,35,36,39,21,22,23,24,25,26,28,29,30,31,33,34,35,36,38,39,40,22,23,24,27,28,29,31,35,36,37,24,26,27,28,29,30,31,35,36,37,24,25,26,27,28,29,30,31,32,33,35,36,37,41,25,26,28,31,34,36,26,27,28,29,30,31,33,35,36,37,27,28,29,31,32,34,35,36,37,38,39,41,28,29,30,31,33,34,35,36,38,39,40,31,32,34,35,36,37,38,39,41,31,32,34,35,36,37,38,39,41,31,32,34,35,36,37,38,39,41,33,34,35,36,38,40,33,34,35,36,37,38,39,40,34,35,36,37,38,39,41,35,36,37,41,36,37,38,39,41,38,39,40,39,41,40,41,41];

USEFUL_RES = [{},
	{1,2,3,4,5,6,7,8,9,10,11,12,13,15,16,17,18,19,20,21,22,23,24,25,26,27,28,29,30,31,32,34,35,36,37,38},
	{1,2,3,4,5,6,8,9,10,11,12,13,14,15,16,17,18,20,21,22,23,24,25,26,27,28,29,30,32,33,34,35,37},
	{1,2,3,4,5,6,8,9,10,11,12,13,14,15,16,17,18,20,21,22,23,24,25,26,27,28,29,30,32,33,34,35,37},
	{1,2,3,4,5,6,7,8,9,10,11,12,13,15,16,17,18,19,20,21,22,23,24,25,26,27,28,29,30,31,32,34,35,36,37,38},
	{1,2,3,5,6,7,8,10,11,12,13,14,15,16,17,18,19,20,21,22,23,24,25,26,27,28,29,31,32,33,34,36,37,38},
	{1,2,3,4,5,6,8,9,10,11,12,13,14,15,16,17,18,20,21,22,23,24,25,26,27,28,29,30,32,33,34,35,37},
	{1,2,3,4,5,6,7,8,9,10,11,12,13,15,16,17,18,19,20,21,22,23,24,25,26,27,28,29,30,31,32,34,35,36,37,38},
	{1,2,3,4,5,6,7,8,9,10,11,12,13,15,16,17,18,19,20,21,22,23,24,25,26,27,28,29,30,31,32,34,35,36,37,38},
	{1,3,4,5,6,7,8,9,10,11,12,13,14,16,19,20,21,22,23,24,26,27,28,29,30,31,32,33,34,35,36,37,38},
	{1,3,4,5,6,7,8,9,10,11,12,13,14,16,19,20,21,22,23,24,26,27,28,29,30,31,32,33,34,35,36,37,38},
	{1,2,3,4,5,6,7,8,9,10,11,12,13,15,16,17,18,19,20,21,22,23,24,25,26,27,28,29,30,31,32,34,35,36,37,38},
	{1,3,4,5,6,7,8,9,10,11,12,13,14,16,19,20,21,22,23,24,26,27,28,29,30,31,32,33,34,35,36,37,38},
	{1,3,4,5,6,7,8,9,10,11,12,13,14,16,19,20,21,22,23,24,26,27,28,29,30,31,32,33,34,35,36,37,38},
	{1,2,3,4,5,6,8,9,10,11,12,13,14,15,16,17,18,20,21,22,23,24,25,26,27,28,29,30,32,33,34,35,37},
	{1,3,4,5,6,7,8,9,10,11,12,13,14,16,19,20,21,22,23,24,26,27,28,29,30,31,32,33,34,35,36,37,38},
	{1,2,3,4,5,6,7,8,9,10,11,12,13,15,16,17,18,19,20,21,22,23,24,25,26,27,28,29,30,31,32,34,35,36,37,38},
	{1,2,3,4,5,6,8,9,10,11,12,13,14,15,16,17,18,20,21,22,23,24,25,26,27,28,29,30,32,33,34,35,37},
	{1,3,4,5,6,7,8,9,10,11,12,13,14,16,19,20,21,22,23,24,26,27,28,29,30,31,32,33,34,35,36,37,38},
	{1,2,3,4,5,6,7,8,9,10,11,12,13,15,16,17,18,19,20,21,22,23,24,25,26,27,28,29,30,31,32,34,35,36,37,38},
	{1,3,4,5,6,7,8,9,10,11,12,13,14,16,19,20,21,22,23,24,26,27,28,29,30,31,32,33,34,35,36,37,38},
	{1,2,3,4,5,6,8,9,10,11,12,13,14,15,16,17,18,20,21,22,23,24,25,26,27,28,29,30,32,33,34,35,37},
	{1,2,3,4,5,6,8,9,10,11,12,13,14,15,16,17,18,20,21,22,23,24,25,26,27,28,29,30,32,33,34,35,37},
	{1,2,3,5,6,7,8,10,11,12,13,14,15,16,17,18,19,20,21,22,23,24,25,26,27,28,29,31,32,33,34,36,37,38},
	{1,2,3,4,5,6,7,8,9,10,11,12,13,15,16,17,18,19,20,21,22,23,24,25,26,27,28,29,30,31,32,34,35,36,37,38},
	{1,2,3,4,5,6,7,8,9,10,11,12,13,15,16,17,18,19,20,21,22,23,24,25,26,27,28,29,30,31,32,34,35,36,37,38},
	{1,2,3,4,5,6,7,8,9,10,11,12,13,15,16,17,18,19,20,21,22,23,24,25,26,27,28,29,30,31,32,34,35,36,37,38},
	{1,3,4,5,6,7,8,9,10,11,12,13,14,16,19,20,21,22,23,24,26,27,28,29,30,31,32,33,34,35,36,37,38},
	{1,2,3,4,5,6,7,8,9,10,11,12,13,15,16,17,18,19,20,21,22,23,24,25,26,27,28,29,30,31,32,34,35,36,37,38},
	{1,3,4,5,6,7,8,9,10,11,12,13,14,16,19,20,21,22,23,24,26,27,28,29,30,31,32,33,34,35,36,37,38},
	{1,2,3,4,5,6,8,9,10,11,12,13,14,15,16,17,18,20,21,22,23,24,25,26,27,28,29,30,32,33,34,35,37},
	{1,2,3,5,6,7,8,10,11,12,13,14,15,16,17,18,19,20,21,22,23,24,25,26,27,28,29,31,32,33,34,36,37,38},
	{1,3,4,5,6,7,8,9,10,11,12,13,14,16,19,20,21,22,23,24,26,27,28,29,30,31,32,33,34,35,36,37,38},
	{1,2,3,4,5,6,7,8,9,10,11,12,13,15,16,17,18,19,20,21,22,23,24,25,26,27,28,29,30,31,32,34,35,36,37,38},
	{1,2,3,5,6,7,8,10,11,12,13,14,15,16,17,18,19,20,21,22,23,24,25,26,27,28,29,31,32,33,34,36,37,38},
	{1,3,4,5,6,7,8,9,10,11,12,13,14,16,19,20,21,22,23,24,26,27,28,29,30,31,32,33,34,35,36,37,38},
	{1,2,3,4,5,6,8,9,10,11,12,13,14,15,16,17,18,20,21,22,23,24,25,26,27,28,29,30,32,33,34,35,37},
	{1,3,4,5,6,7,8,9,10,11,12,13,14,16,19,20,21,22,23,24,26,27,28,29,30,31,32,33,34,35,36,37,38},
	{1,2,3,4,5,6,7,8,9,10,11,12,13,15,16,17,18,19,20,21,22,23,24,25,26,27,28,29,30,31,32,34,35,36,37,38},
	{1,2,3,4,5,6,7,8,9,10,11,12,13,15,16,17,18,19,20,21,22,23,24,25,26,27,28,29,30,31,32,34,35,36,37,38},
	{1,2,3,5,6,7,8,10,11,12,13,14,15,16,17,18,19,20,21,22,23,24,25,26,27,28,29,31,32,33,34,36,37,38},
	{}];

POTENTIAL_ACT = [{2,3,4,5,6,7,8,9,10,11,12,13,14,15,16,17,18,19,20,21,22,23,24,25,26,27,28,29,30,31,32,33,34,35,36,37,38,39,40,41},
	{2,3,4,5,6,7,8,9,12,15,17,18,20,22,23,24,25,26,27,29,31,32,34,35,37,39,40,41},
	{2,3,4,5,6,7,8,9,10,11,12,13,14,15,16,17,18,19,20,21,22,23,24,25,26,27,28,29,30,31,32,33,34,35,36,37,38,39,40,41},
	{2,3,4,5,7,8,9,10,11,12,13,14,15,16,17,18,19,20,21,22,23,25,26,27,28,29,30,31,33,34,36,37,38,39,40},
	{2,3,4,5,6,7,8,9,10,11,12,13,14,15,16,17,18,19,20,21,22,23,24,25,26,27,28,29,30,31,32,33,34,35,36,37,38,39,40,41},
	{2,3,4,5,6,7,8,9,10,11,12,13,14,15,16,17,18,19,20,21,22,23,24,25,26,27,28,29,30,31,32,33,34,35,36,37,38,39,40,41},
	{2,5,6,8,9,10,11,12,13,14,16,17,19,20,21,24,25,26,27,28,29,30,32,33,34,35,36,38,39,40,41},
	{2,3,4,5,6,7,8,9,10,11,12,13,14,15,16,17,18,19,20,21,22,23,24,25,26,27,28,29,30,31,32,33,34,35,36,37,38,39,40,41},
	{2,3,4,5,7,8,9,10,11,12,13,14,15,16,17,18,19,20,21,22,23,25,26,27,28,29,30,31,33,34,36,37,38,39,40},
	{2,3,4,5,6,7,8,9,10,11,12,13,14,15,16,17,18,19,20,21,22,23,24,25,26,27,28,29,30,31,32,33,34,35,36,37,38,39,40,41},
	{2,3,4,5,6,7,8,9,10,11,12,13,14,15,16,17,18,19,20,21,22,23,24,25,26,27,28,29,30,31,32,33,34,35,36,37,38,39,40,41},
	{2,3,4,5,6,7,8,9,10,11,12,13,14,15,16,17,18,19,20,21,22,23,24,25,26,27,28,29,30,31,32,33,34,35,36,37,38,39,40,41},
	{2,3,4,5,6,7,8,9,10,11,12,13,14,15,16,17,18,19,20,21,22,23,24,25,26,27,28,29,30,31,32,33,34,35,36,37,38,39,40,41},
	{3,4,6,7,10,11,13,14,15,16,18,19,21,22,23,24,28,30,31,32,33,35,36,37,38,41},
	{2,3,4,5,6,7,8,9,12,15,17,18,20,22,23,24,25,26,27,29,31,32,34,35,37,39,40,41},
	{2,3,4,5,6,7,8,9,10,11,12,13,14,15,16,17,18,19,20,21,22,23,24,25,26,27,28,29,30,31,32,33,34,35,36,37,38,39,40,41},
	{2,3,4,5,6,7,8,9,12,15,17,18,20,22,23,24,25,26,27,29,31,32,34,35,37,39,40,41},
	{2,3,4,5,6,7,8,9,12,15,17,18,20,22,23,24,25,26,27,29,31,32,34,35,37,39,40,41},
	{2,5,6,8,9,10,11,12,13,14,16,17,19,20,21,24,25,26,27,28,29,30,32,33,34,35,36,38,39,40,41},
	{2,3,4,5,6,7,8,9,10,11,12,13,14,15,16,17,18,19,20,21,22,23,24,25,26,27,28,29,30,31,32,33,34,35,36,37,38,39,40,41},
	{2,3,4,5,6,7,8,9,10,11,12,13,14,15,16,17,18,19,20,21,22,23,24,25,26,27,28,29,30,31,32,33,34,35,36,37,38,39,40,41},
	{2,3,4,5,6,7,8,9,10,11,12,13,14,15,16,17,18,19,20,21,22,23,24,25,26,27,28,29,30,31,32,33,34,35,36,37,38,39,40,41},
	{2,3,4,5,6,7,8,9,10,11,12,13,14,15,16,17,18,19,20,21,22,23,24,25,26,27,28,29,30,31,32,33,34,35,36,37,38,39,40,41},
	{2,3,4,5,6,7,8,9,10,11,12,13,14,15,16,17,18,19,20,21,22,23,24,25,26,27,28,29,30,31,32,33,34,35,36,37,38,39,40,41},
	{2,3,4,5,6,7,8,9,12,15,17,18,20,22,23,24,25,26,27,29,31,32,34,35,37,39,40,41},
	{2,3,4,5,6,7,8,9,10,11,12,13,14,15,16,17,18,19,20,21,22,23,24,25,26,27,28,29,30,31,32,33,34,35,36,37,38,39,40,41},
	{2,3,4,5,6,7,8,9,10,11,12,13,14,15,16,17,18,19,20,21,22,23,24,25,26,27,28,29,30,31,32,33,34,35,36,37,38,39,40,41},
	{2,3,4,5,6,7,8,9,10,11,12,13,14,15,16,17,18,19,20,21,22,23,24,25,26,27,28,29,30,31,32,33,34,35,36,37,38,39,40,41},
	{2,3,4,5,6,7,8,9,10,11,12,13,14,15,16,17,18,19,20,21,22,23,24,25,26,27,28,29,30,31,32,33,34,35,36,37,38,39,40,41},
	{2,3,4,5,7,8,9,10,11,12,13,14,15,16,17,18,19,20,21,22,23,25,26,27,28,29,30,31,33,34,36,37,38,39,40},
	{2,5,6,8,9,10,11,12,13,14,16,17,19,20,21,24,25,26,27,28,29,30,32,33,34,35,36,38,39,40,41},
	{2,3,4,5,6,7,8,9,10,11,12,13,14,15,16,17,18,19,20,21,22,23,24,25,26,27,28,29,30,31,32,33,34,35,36,37,38,39,40,41},
	{3,4,6,7,10,11,13,14,15,16,18,19,21,22,23,24,28,30,31,32,33,35,36,37,38,41},
	{2,3,4,5,6,7,8,9,10,11,12,13,14,15,16,17,18,19,20,21,22,23,24,25,26,27,28,29,30,31,32,33,34,35,36,37,38,39,40,41},
	{2,3,4,5,7,8,9,10,11,12,13,14,15,16,17,18,19,20,21,22,23,25,26,27,28,29,30,31,33,34,36,37,38,39,40},
	{2,5,6,8,9,10,11,12,13,14,16,17,19,20,21,24,25,26,27,28,29,30,32,33,34,35,36,38,39,40,41},
	{2,3,4,5,6,7,8,9,10,11,12,13,14,15,16,17,18,19,20,21,22,23,24,25,26,27,28,29,30,31,32,33,34,35,36,37,38,39,40,41},
	{2,5,6,8,9,10,11,12,13,14,16,17,19,20,21,24,25,26,27,28,29,30,32,33,34,35,36,38,39,40,41}];
